p cnf 7 27
-6 0
-7 -5 5 0
1 0
-6 0
-7 -6 0
3 0
-6 -4 5 0
-3 3 5 0
-5 5 0
-1 0
-7 -4 -3 -2 0
1 3 -4 0
-7 0
7 0
-7 -3 -1 0
-1 0
1 6 0
2 -4 0
-4 4 0
7 0
-6 5 -2 0
4 0
-7 1 0
1 7 0
3 2 -6 -5 0
2 -4 5 -1 0
-3 -2 0
